p tw 30 45
e 0 3
e 0 4
e 0 21
e 0 22
e 1 2
e 2 27
e 3 7
e 3 20
e 3 24
e 3 26
e 3 28
e 4 10
e 4 13
e 4 19
e 5 19
e 5 22
e 5 23
e 5 25
e 6 18
e 6 19
e 6 24
e 7 17
e 7 21
e 8 9
e 8 15
e 8 21
e 8 25
e 9 15
e 9 20
e 10 25
e 11 12
e 11 13
e 11 28
e 12 24
e 14 16
e 14 22
e 16 17
e 16 18
e 16 28
e 16 29
e 18 20
e 19 23
e 20 22
e 22 25
e 24 25
